&CONTROL
  calculation='relax',
  prefix='calc',
  pseudo_dir='/gpfs/pace1/project/chbe-medford/medford-share/data/pseudos/SSSP_eff_PBE',
  outdir='.',
  tprnfor=.true.,
/
&SYSTEM
  ibrav=0,
  celldm(1)=1.8897261245650618d0,
  nat=144,
  ntyp=4,
  ecutwfc=29.3994590327d0,
  ecutrho=330.743914118d0,
  nbnd=1121,
  occupations='smearing',
  smearing='fd',
  degauss=0.00734986475817d0,
  input_dft='PBE',
/
&ELECTRONS
  diagonalization='cg',
  conv_thr=7.34986475817e-08,
  mixing_beta=0.05d0,
  mixing_mode='local-TF',
  electron_maxstep=1000,
  conv_thr=7.34986475817e-08,
/
&IONS
  ion_dynamics='ase3',
/
CELL_PARAMETERS
    4.782192279697671d0     0.000000000000000d0     0.000000000000000d0
   -2.391096139848834d0     4.664945471278310d0     0.000000000000000d0
    0.000000000000000d0    -0.000000000000000d0    21.318666646346532d0
ATOMIC_SPECIES
Rh1 102.9055d0 Rh.UPF
O1 15.9994d0 O.UPF
C1 12.011d0 C.UPF
H1 1.00794d0 H.UPF
ATOMIC_POSITIONS {crystal}
Rh1      0.000000000000000d0     0.000000000000000d0     0.469072487782145d0
Rh1      0.000000000000000d0     0.500000000000000d0     0.469072487782145d0
Rh1      0.500000000000000d0     0.500000000000000d0     0.469072487782145d0
Rh1      0.500000000000000d0     0.000000000000000d0     0.469072487782145d0
Rh1      0.543787452885294d0     0.087574905770587d0     0.530927512217855d0
Rh1      0.543787452885294d0     0.587574905770587d0     0.530927512217855d0
Rh1      0.043787452885294d0     0.587574905770587d0     0.530927512217855d0
Rh1      0.043787452885293d0     0.087574905770587d0     0.530927512217855d0
Rh1      0.000000000000000d0     0.000000000000000d0     0.469072487782145d0
Rh1      0.000000000000000d0     0.500000000000000d0     0.469072487782145d0
Rh1      0.500000000000000d0     0.500000000000000d0     0.469072487782145d0
Rh1      0.500000000000000d0     0.000000000000000d0     0.469072487782145d0
Rh1      0.543787452885294d0     0.087574905770587d0     0.530927512217855d0
Rh1      0.543787452885294d0     0.587574905770587d0     0.530927512217855d0
Rh1      0.043787452885294d0     0.587574905770587d0     0.530927512217855d0
Rh1      0.043787452885293d0     0.087574905770587d0     0.530927512217855d0
Rh1      0.000000000000000d0     0.000000000000000d0     0.469072487782145d0
Rh1      0.000000000000000d0     0.500000000000000d0     0.469072487782145d0
Rh1      0.500000000000000d0     0.500000000000000d0     0.469072487782145d0
Rh1      0.500000000000000d0     0.000000000000000d0     0.469072487782145d0
Rh1      0.543787452885293d0     0.087574905770587d0     0.530927512217855d0
Rh1      0.543787452885294d0     0.587574905770587d0     0.530927512217855d0
Rh1      0.043787452885294d0     0.587574905770587d0     0.530927512217855d0
Rh1      0.043787452885293d0     0.087574905770587d0     0.530927512217855d0
Rh1      1.000000000000000d0     0.000000000000000d0     0.469072487782145d0
Rh1      0.000000000000000d0     0.500000000000000d0     0.469072487782145d0
Rh1      0.500000000000000d0     0.500000000000000d0     0.469072487782145d0
Rh1      0.500000000000000d0     0.000000000000000d0     0.469072487782145d0
Rh1      0.543787452885293d0     0.087574905770587d0     0.530927512217855d0
Rh1      0.543787452885294d0     0.587574905770587d0     0.530927512217855d0
Rh1      0.043787452885293d0     0.587574905770587d0     0.530927512217855d0
Rh1      0.043787452885293d0     0.087574905770587d0     0.530927512217855d0
Rh1      0.000000000000000d0     0.000000000000000d0     0.469072487782145d0
Rh1      0.000000000000000d0     0.500000000000000d0     0.469072487782145d0
Rh1      0.500000000000000d0     0.500000000000000d0     0.469072487782145d0
Rh1      0.500000000000000d0     0.000000000000000d0     0.469072487782145d0
Rh1      0.543787452885294d0     0.087574905770587d0     0.530927512217855d0
Rh1      0.543787452885294d0     0.587574905770587d0     0.530927512217855d0
Rh1      0.043787452885294d0     0.587574905770587d0     0.530927512217855d0
Rh1      0.043787452885293d0     0.087574905770587d0     0.530927512217855d0
Rh1      0.000000000000000d0     0.000000000000000d0     0.469072487782145d0
Rh1      0.000000000000000d0     0.500000000000000d0     0.469072487782145d0
Rh1      0.500000000000000d0     0.500000000000000d0     0.469072487782145d0
Rh1      0.500000000000000d0     0.000000000000000d0     0.469072487782145d0
Rh1      0.543787452885294d0     0.087574905770587d0     0.530927512217855d0
Rh1      0.543787452885294d0     0.587574905770587d0     0.530927512217855d0
Rh1      0.043787452885294d0     0.587574905770587d0     0.530927512217855d0
Rh1      0.043787452885293d0     0.087574905770587d0     0.530927512217855d0
Rh1      0.000000000000000d0     0.000000000000000d0     0.469072487782145d0
Rh1      0.000000000000000d0     0.500000000000000d0     0.469072487782145d0
Rh1      0.500000000000000d0     0.500000000000000d0     0.469072487782145d0
Rh1      0.500000000000000d0     0.000000000000000d0     0.469072487782145d0
Rh1      0.543787452885293d0     0.087574905770587d0     0.530927512217855d0
Rh1      0.543787452885294d0     0.587574905770587d0     0.530927512217855d0
Rh1      0.043787452885294d0     0.587574905770587d0     0.530927512217855d0
Rh1      0.043787452885293d0     0.087574905770587d0     0.530927512217855d0
Rh1      0.000000000000000d0     0.000000000000000d0     0.469072487782145d0
Rh1      0.000000000000000d0     0.500000000000000d0     0.469072487782145d0
Rh1      0.500000000000000d0     0.500000000000000d0     0.469072487782145d0
Rh1      0.500000000000000d0     0.000000000000000d0     0.469072487782145d0
Rh1      0.543787452885293d0     0.087574905770587d0     0.530927512217855d0
Rh1      0.543787452885294d0     0.587574905770587d0     0.530927512217855d0
Rh1      0.043787452885294d0     0.587574905770587d0     0.530927512217855d0
Rh1      0.043787452885293d0     0.087574905770587d0     0.530927512217855d0
Rh1      0.000000000000000d0     0.000000000000000d0     0.469072487782145d0
Rh1      0.000000000000000d0     0.500000000000000d0     0.469072487782145d0
Rh1      0.500000000000000d0     0.500000000000000d0     0.469072487782145d0
Rh1      0.500000000000000d0     0.000000000000000d0     0.469072487782145d0
Rh1      0.543787452885294d0     0.087574905770587d0     0.530927512217855d0
Rh1      0.543787452885294d0     0.587574905770587d0     0.530927512217855d0
Rh1      0.043787452885294d0     0.587574905770587d0     0.530927512217855d0
Rh1      0.043787452885294d0     0.087574905770587d0     0.530927512217855d0
Rh1      0.000000000000000d0     0.000000000000000d0     0.469072487782145d0
Rh1      0.000000000000000d0     0.500000000000000d0     0.469072487782145d0
Rh1      0.500000000000000d0     0.500000000000000d0     0.469072487782145d0
Rh1      0.500000000000000d0     0.000000000000000d0     0.469072487782145d0
Rh1      0.543787452885294d0     0.087574905770587d0     0.530927512217855d0
Rh1      0.543787452885294d0     0.587574905770587d0     0.530927512217855d0
Rh1      0.043787452885294d0     0.587574905770587d0     0.530927512217855d0
Rh1      0.043787452885293d0     0.087574905770587d0     0.530927512217855d0
Rh1      0.000000000000000d0     0.000000000000000d0     0.469072487782145d0
Rh1      0.000000000000000d0     0.500000000000000d0     0.469072487782145d0
Rh1      0.500000000000000d0     0.500000000000000d0     0.469072487782145d0
Rh1      0.500000000000000d0     0.000000000000000d0     0.469072487782145d0
Rh1      0.543787452885293d0     0.087574905770587d0     0.530927512217855d0
Rh1      0.543787452885294d0     0.587574905770587d0     0.530927512217855d0
Rh1      0.043787452885294d0     0.587574905770587d0     0.530927512217855d0
Rh1      0.043787452885293d0     0.087574905770587d0     0.530927512217855d0
Rh1      0.000000000000000d0     0.000000000000000d0     0.469072487782145d0
Rh1      0.000000000000000d0     0.500000000000000d0     0.469072487782145d0
Rh1      0.500000000000000d0     0.500000000000000d0     0.469072487782145d0
Rh1      0.500000000000000d0     0.000000000000000d0     0.469072487782145d0
Rh1      0.543787452885293d0     0.087574905770587d0     0.530927512217855d0
Rh1      0.543787452885294d0     0.587574905770587d0     0.530927512217855d0
Rh1      0.043787452885294d0     0.587574905770587d0     0.530927512217855d0
Rh1      0.043787452885293d0     0.087574905770587d0     0.530927512217855d0
Rh1      0.000000000000000d0     0.000000000000000d0     0.469072487782145d0
Rh1      0.000000000000000d0     0.500000000000000d0     0.469072487782145d0
Rh1      0.500000000000000d0     0.500000000000000d0     0.469072487782145d0
Rh1      0.500000000000000d0     0.000000000000000d0     0.469072487782145d0
Rh1      0.543787452885293d0     0.087574905770587d0     0.530927512217855d0
Rh1      0.543787452885294d0     0.587574905770587d0     0.530927512217855d0
Rh1      0.043787452885294d0     0.587574905770587d0     0.530927512217855d0
Rh1      0.043787452885294d0     0.087574905770587d0     0.530927512217855d0
Rh1      0.000000000000000d0     0.000000000000000d0     0.469072487782145d0
Rh1      0.000000000000000d0     0.500000000000000d0     0.469072487782145d0
Rh1      0.500000000000000d0     0.500000000000000d0     0.469072487782145d0
Rh1      0.500000000000000d0     0.000000000000000d0     0.469072487782145d0
Rh1      0.543787452885294d0     0.087574905770587d0     0.530927512217855d0
Rh1      0.543787452885294d0     0.587574905770587d0     0.530927512217855d0
Rh1      0.043787452885294d0     0.587574905770587d0     0.530927512217855d0
Rh1      0.043787452885294d0     0.087574905770587d0     0.530927512217855d0
Rh1      0.000000000000000d0     0.000000000000000d0     0.469072487782145d0
Rh1      0.000000000000000d0     0.500000000000000d0     0.469072487782145d0
Rh1      0.500000000000000d0     0.500000000000000d0     0.469072487782145d0
Rh1      0.500000000000000d0     0.000000000000000d0     0.469072487782145d0
Rh1      0.543787452885293d0     0.087574905770587d0     0.530927512217855d0
Rh1      0.543787452885294d0     0.587574905770587d0     0.530927512217855d0
Rh1      0.043787452885294d0     0.587574905770587d0     0.530927512217855d0
Rh1      0.043787452885294d0     0.087574905770587d0     0.530927512217855d0
Rh1      0.000000000000000d0     0.000000000000000d0     0.469072487782145d0
Rh1      0.000000000000000d0     0.500000000000000d0     0.469072487782145d0
Rh1      0.500000000000000d0     0.500000000000000d0     0.469072487782145d0
Rh1      0.500000000000000d0     0.000000000000000d0     0.469072487782145d0
Rh1      0.543787452885293d0     0.087574905770587d0     0.530927512217855d0
Rh1      0.543787452885293d0     0.587574905770587d0     0.530927512217855d0
Rh1      0.043787452885294d0     0.587574905770587d0     0.530927512217855d0
Rh1      0.043787452885293d0     0.087574905770587d0     0.530927512217855d0
O1       0.415407620768396d0     0.305362626159412d0     0.763062104971483d0
O1       0.316291504933059d0     0.214364777928685d0     0.765463756108927d0
O1       0.237953237350583d0     0.753309013559669d0     0.763076177146116d0
C1       0.887468742778766d0     0.915497404540512d0     0.763718806454378d0
C1       0.771456727004741d0     0.142509704366990d0     0.763948651973391d0
C1       0.243478146743230d0     0.045230968142953d0     0.763934579798758d0
C1       0.378799934776536d0     0.836010944884556d0     0.765505972632828d0
C1       0.416933144074781d0     0.010310945818370d0     0.764075301545092d0
H1       0.800510768497188d0     0.779890246022826d0     0.721957282867133d0
H1       0.799068329426957d0     0.778218200754982d0     0.805208267998709d0
H1       0.858170077141508d0     0.278631338351705d0     0.722257489259314d0
H1       0.858932218414281d0     0.277688133328819d0     0.805752392084536d0
H1       0.303192095426292d0     0.707713625294238d0     0.808318218592704d0
H1       0.300241409775087d0     0.697295497086904d0     0.724255738057266d0
H1       0.635448727568054d0     0.952754002944518d0     0.765060353769435d0
H1       0.086230694177698d0     0.130012237813747d0     0.765552879881606d0
K_POINTS automatic
6 6 1 0 0 0
