&CONTROL
  calculation='relax',
  prefix='calc',
  pseudo_dir='/gpfs/pace1/project/chbe-medford/medford-share/data/pseudos/SSSP_eff_PBE',
  outdir='.',
  tprnfor=.true.,
/
&SYSTEM
  ibrav=0,
  celldm(1)=1.8897261245650618d0,
  nat=144,
  ntyp=4,
  ecutwfc=29.3994590327d0,
  ecutrho=330.743914118d0,
  nbnd=1057,
  occupations='smearing',
  smearing='fd',
  degauss=0.00734986475817d0,
  input_dft='PBE',
/
&ELECTRONS
  diagonalization='cg',
  conv_thr=7.34986475817e-08,
  mixing_beta=0.05d0,
  mixing_mode='local-TF',
  electron_maxstep=1000,
  conv_thr=7.34986475817e-08,
/
&IONS
  ion_dynamics='ase3',
/
CELL_PARAMETERS
    5.547959805189652d0     0.000000000000000d0     0.000000000000000d0
   -2.773979902594826d0     4.804674130469205d0     0.000000000000000d0
    0.000000000000000d0    -0.000000000000000d0    22.264945106030900d0
ATOMIC_SPECIES
Pt1 195.08d0 Pt.UPF
O1 15.9994d0 O.UPF
C1 12.011d0 C.UPF
H1 1.00794d0 H.UPF
ATOMIC_POSITIONS {crystal}
Pt1      0.000000000000000d0     0.000000000000000d0     0.449136521665679d0
Pt1      0.000000000000000d0     0.500000000000000d0     0.449136521665679d0
Pt1      0.500000000000000d0     0.500000000000000d0     0.449136521665679d0
Pt1      0.500000000000000d0     0.000000000000000d0     0.449136521665679d0
Pt1      0.666666666666667d0     0.333333333333333d0     0.550863478334321d0
Pt1      0.666666666666667d0     0.833333333333333d0     0.550863478334321d0
Pt1      0.166666666666667d0     0.833333333333333d0     0.550863478334321d0
Pt1      0.166666666666667d0     0.333333333333333d0     0.550863478334321d0
Pt1      0.000000000000000d0     0.000000000000000d0     0.449136521665679d0
Pt1      1.000000000000000d0     0.500000000000000d0     0.449136521665679d0
Pt1      0.500000000000000d0     0.500000000000000d0     0.449136521665679d0
Pt1      0.500000000000000d0     0.000000000000000d0     0.449136521665679d0
Pt1      0.666666666666667d0     0.333333333333333d0     0.550863478334321d0
Pt1      0.666666666666667d0     0.833333333333333d0     0.550863478334321d0
Pt1      0.166666666666667d0     0.833333333333333d0     0.550863478334321d0
Pt1      0.166666666666667d0     0.333333333333333d0     0.550863478334321d0
Pt1      0.000000000000000d0     0.000000000000000d0     0.449136521665679d0
Pt1      0.000000000000000d0     0.500000000000000d0     0.449136521665679d0
Pt1      0.500000000000000d0     0.500000000000000d0     0.449136521665679d0
Pt1      0.500000000000000d0     0.000000000000000d0     0.449136521665679d0
Pt1      0.666666666666667d0     0.333333333333333d0     0.550863478334321d0
Pt1      0.666666666666667d0     0.833333333333333d0     0.550863478334321d0
Pt1      0.166666666666667d0     0.833333333333333d0     0.550863478334321d0
Pt1      0.166666666666667d0     0.333333333333333d0     0.550863478334321d0
Pt1      1.000000000000000d0     1.000000000000000d0     0.449136521665679d0
Pt1      0.000000000000000d0     0.500000000000000d0     0.449136521665679d0
Pt1      0.500000000000000d0     0.500000000000000d0     0.449136521665679d0
Pt1      0.500000000000000d0     1.000000000000000d0     0.449136521665679d0
Pt1      0.666666666666667d0     0.333333333333333d0     0.550863478334321d0
Pt1      0.666666666666667d0     0.833333333333333d0     0.550863478334321d0
Pt1      0.166666666666667d0     0.833333333333333d0     0.550863478334321d0
Pt1      0.166666666666667d0     0.333333333333333d0     0.550863478334321d0
Pt1      0.000000000000000d0     0.000000000000000d0     0.449136521665679d0
Pt1      0.000000000000000d0     0.500000000000000d0     0.449136521665679d0
Pt1      0.500000000000000d0     0.500000000000000d0     0.449136521665679d0
Pt1      0.500000000000000d0     0.000000000000000d0     0.449136521665679d0
Pt1      0.666666666666667d0     0.333333333333333d0     0.550863478334321d0
Pt1      0.666666666666667d0     0.833333333333333d0     0.550863478334321d0
Pt1      0.166666666666667d0     0.833333333333333d0     0.550863478334321d0
Pt1      0.166666666666667d0     0.333333333333333d0     0.550863478334321d0
Pt1      0.000000000000000d0     0.000000000000000d0     0.449136521665679d0
Pt1      1.000000000000000d0     0.500000000000000d0     0.449136521665679d0
Pt1      0.500000000000000d0     0.500000000000000d0     0.449136521665679d0
Pt1      0.500000000000000d0     0.000000000000000d0     0.449136521665679d0
Pt1      0.666666666666667d0     0.333333333333333d0     0.550863478334321d0
Pt1      0.666666666666667d0     0.833333333333333d0     0.550863478334321d0
Pt1      0.166666666666667d0     0.833333333333333d0     0.550863478334321d0
Pt1      0.166666666666667d0     0.333333333333333d0     0.550863478334321d0
Pt1      0.000000000000000d0     0.000000000000000d0     0.449136521665679d0
Pt1      0.000000000000000d0     0.500000000000000d0     0.449136521665679d0
Pt1      0.500000000000000d0     0.500000000000000d0     0.449136521665679d0
Pt1      0.500000000000000d0     0.000000000000000d0     0.449136521665679d0
Pt1      0.666666666666667d0     0.333333333333333d0     0.550863478334321d0
Pt1      0.666666666666667d0     0.833333333333333d0     0.550863478334321d0
Pt1      0.166666666666667d0     0.833333333333333d0     0.550863478334321d0
Pt1      0.166666666666667d0     0.333333333333333d0     0.550863478334321d0
Pt1      1.000000000000000d0     1.000000000000000d0     0.449136521665679d0
Pt1      1.000000000000000d0     0.500000000000000d0     0.449136521665679d0
Pt1      0.500000000000000d0     0.500000000000000d0     0.449136521665679d0
Pt1      0.500000000000000d0     1.000000000000000d0     0.449136521665679d0
Pt1      0.666666666666667d0     0.333333333333333d0     0.550863478334321d0
Pt1      0.666666666666667d0     0.833333333333333d0     0.550863478334321d0
Pt1      0.166666666666667d0     0.833333333333333d0     0.550863478334321d0
Pt1      0.166666666666667d0     0.333333333333333d0     0.550863478334321d0
Pt1      0.000000000000000d0     0.000000000000000d0     0.449136521665679d0
Pt1      0.000000000000000d0     0.500000000000000d0     0.449136521665679d0
Pt1      0.500000000000000d0     0.500000000000000d0     0.449136521665679d0
Pt1      0.500000000000000d0     0.000000000000000d0     0.449136521665679d0
Pt1      0.666666666666667d0     0.333333333333333d0     0.550863478334321d0
Pt1      0.666666666666667d0     0.833333333333333d0     0.550863478334321d0
Pt1      0.166666666666667d0     0.833333333333333d0     0.550863478334321d0
Pt1      0.166666666666667d0     0.333333333333333d0     0.550863478334321d0
Pt1      0.000000000000000d0     0.000000000000000d0     0.449136521665679d0
Pt1      1.000000000000000d0     0.500000000000000d0     0.449136521665679d0
Pt1      0.500000000000000d0     0.500000000000000d0     0.449136521665679d0
Pt1      0.500000000000000d0     0.000000000000000d0     0.449136521665679d0
Pt1      0.666666666666667d0     0.333333333333333d0     0.550863478334321d0
Pt1      0.666666666666667d0     0.833333333333333d0     0.550863478334321d0
Pt1      0.166666666666667d0     0.833333333333333d0     0.550863478334321d0
Pt1      0.166666666666667d0     0.333333333333333d0     0.550863478334321d0
Pt1      0.000000000000000d0     0.000000000000000d0     0.449136521665679d0
Pt1      0.000000000000000d0     0.500000000000000d0     0.449136521665679d0
Pt1      0.500000000000000d0     0.500000000000000d0     0.449136521665679d0
Pt1      0.500000000000000d0     0.000000000000000d0     0.449136521665679d0
Pt1      0.666666666666667d0     0.333333333333333d0     0.550863478334321d0
Pt1      0.666666666666667d0     0.833333333333333d0     0.550863478334321d0
Pt1      0.166666666666667d0     0.833333333333333d0     0.550863478334321d0
Pt1      0.166666666666667d0     0.333333333333333d0     0.550863478334321d0
Pt1      1.000000000000000d0     1.000000000000000d0     0.449136521665679d0
Pt1      1.000000000000000d0     0.500000000000000d0     0.449136521665679d0
Pt1      0.500000000000000d0     0.500000000000000d0     0.449136521665679d0
Pt1      0.500000000000000d0     1.000000000000000d0     0.449136521665679d0
Pt1      0.666666666666667d0     0.333333333333333d0     0.550863478334321d0
Pt1      0.666666666666667d0     0.833333333333333d0     0.550863478334321d0
Pt1      0.166666666666667d0     0.833333333333333d0     0.550863478334321d0
Pt1      0.166666666666667d0     0.333333333333333d0     0.550863478334321d0
Pt1      0.000000000000000d0     0.000000000000000d0     0.449136521665679d0
Pt1      0.000000000000000d0     0.500000000000000d0     0.449136521665679d0
Pt1      0.500000000000000d0     0.500000000000000d0     0.449136521665679d0
Pt1      0.500000000000000d0     0.000000000000000d0     0.449136521665679d0
Pt1      0.666666666666667d0     0.333333333333333d0     0.550863478334321d0
Pt1      0.666666666666667d0     0.833333333333333d0     0.550863478334321d0
Pt1      0.166666666666667d0     0.833333333333333d0     0.550863478334321d0
Pt1      0.166666666666667d0     0.333333333333333d0     0.550863478334321d0
Pt1      0.000000000000000d0     0.000000000000000d0     0.449136521665679d0
Pt1      0.000000000000000d0     0.500000000000000d0     0.449136521665679d0
Pt1      0.500000000000000d0     0.500000000000000d0     0.449136521665679d0
Pt1      0.500000000000000d0     0.000000000000000d0     0.449136521665679d0
Pt1      0.666666666666667d0     0.333333333333333d0     0.550863478334321d0
Pt1      0.666666666666667d0     0.833333333333333d0     0.550863478334321d0
Pt1      0.166666666666667d0     0.833333333333333d0     0.550863478334321d0
Pt1      0.166666666666667d0     0.333333333333333d0     0.550863478334321d0
Pt1      0.000000000000000d0     0.000000000000000d0     0.449136521665679d0
Pt1      0.000000000000000d0     0.500000000000000d0     0.449136521665679d0
Pt1      0.500000000000000d0     0.500000000000000d0     0.449136521665679d0
Pt1      0.500000000000000d0     0.000000000000000d0     0.449136521665679d0
Pt1      0.666666666666667d0     0.333333333333333d0     0.550863478334321d0
Pt1      0.666666666666667d0     0.833333333333333d0     0.550863478334321d0
Pt1      0.166666666666667d0     0.833333333333333d0     0.550863478334321d0
Pt1      0.166666666666667d0     0.333333333333333d0     0.550863478334321d0
Pt1      0.000000000000000d0     1.000000000000000d0     0.449136521665679d0
Pt1      0.000000000000000d0     0.500000000000000d0     0.449136521665679d0
Pt1      0.500000000000000d0     0.500000000000000d0     0.449136521665679d0
Pt1      0.500000000000000d0     1.000000000000000d0     0.449136521665679d0
Pt1      0.666666666666667d0     0.333333333333333d0     0.550863478334321d0
Pt1      0.666666666666667d0     0.833333333333333d0     0.550863478334321d0
Pt1      0.166666666666667d0     0.833333333333333d0     0.550863478334321d0
Pt1      0.166666666666667d0     0.333333333333333d0     0.550863478334321d0
O1       0.236677210970905d0     0.296482125804625d0     0.773132160176232d0
O1       0.284311769474996d0     0.208130660445507d0     0.775431739167161d0
O1       0.191671415719680d0     0.760483235959310d0     0.773145634271882d0
C1       0.760371140385586d0     0.917954893652381d0     0.773760951306564d0
C1       0.672737833368221d0     0.138365263064173d0     0.773981028202180d0
C1       0.074308595607294d0     0.043915569354002d0     0.773967554106531d0
C1       0.179555597707909d0     0.840780044759187d0     0.775472161454111d0
C1       0.359946830559230d0     0.010011084767429d0     0.774102295063030d0
H1       0.678028838651167d0     0.786291437854553d0     0.733774326782669d0
H1       0.676694414401597d0     0.784668018703078d0     0.813487076647894d0
H1       0.754897300440969d0     0.270528232447071d0     0.734061774156535d0
H1       0.755502866979578d0     0.269612457541110d0     0.814008075013026d0
H1       0.107394992698568d0     0.716213844482551d0     0.816464851786537d0
H1       0.104284079193667d0     0.706098694384899d0     0.735975095738831d0
H1       0.407139250246197d0     0.954128002437810d0     0.775045481758528d0
H1       0.081410636364203d0     0.126231245560200d0     0.775517075106277d0
K_POINTS automatic
6 6 1 0 0 0
