&CONTROL
  calculation='relax',
  prefix='calc',
  pseudo_dir='/gpfs/pace1/project/chbe-medford/medford-share/data/pseudos/SSSP_eff_PBE',
  outdir='.',
  tprnfor=.true.,
/
&SYSTEM
  ibrav=0,
  celldm(1)=1.8897261245650618d0,
  nat=56,
  ntyp=4,
  ecutwfc=29.3994590327d0,
  ecutrho=330.743914118d0,
  nbnd=307,
  occupations='smearing',
  smearing='fd',
  degauss=0.00734986475817d0,
  input_dft='PBE',
/
&ELECTRONS
  diagonalization='cg',
  conv_thr=7.34986475817e-08,
  mixing_beta=0.05d0,
  mixing_mode='local-TF',
  electron_maxstep=1000,
  conv_thr=7.34986475817e-08,
/
&IONS
  ion_dynamics='ase3',
/
CELL_PARAMETERS
   11.181055266834164d0     0.000000000000000d0     0.000000000000000d0
   -5.590527633417082d0     9.683077902196182d0     0.000000000000000d0
    0.000000000000000d0    -0.000000000000000d0    30.176323349133511d0
ATOMIC_SPECIES
Pt1 195.08d0 Pt.UPF
O1 15.9994d0 O.UPF
C1 12.011d0 C.UPF
H1 1.00794d0 H.UPF
ATOMIC_POSITIONS {crystal}
Pt1      0.000000000000000d0     0.000000000000000d0     0.331385632514013d0
Pt1      0.166666666666667d0     0.083333333333333d0     0.407018549179424d0
Pt1      0.000000000000000d0     0.250000000000000d0     0.331385632514013d0
Pt1      0.166666666666667d0     0.333333333333333d0     0.407018549179424d0
Pt1      0.000000000000000d0     0.500000000000000d0     0.331385632514013d0
Pt1      0.166666666666667d0     0.583333333333333d0     0.407018549179424d0
Pt1      0.000000000000000d0     0.750000000000000d0     0.331385632514013d0
Pt1      0.166666666666667d0     0.833333333333333d0     0.407018549179424d0
Pt1      0.250000000000000d0     0.000000000000000d0     0.331385632514013d0
Pt1      0.416666666666667d0     0.083333333333333d0     0.407018549179424d0
Pt1      0.250000000000000d0     0.250000000000000d0     0.331385632514013d0
Pt1      0.416666666666667d0     0.333333333333333d0     0.407018549179424d0
Pt1      0.250000000000000d0     0.500000000000000d0     0.331385632514013d0
Pt1      0.416666666666667d0     0.583333333333333d0     0.407018549179424d0
Pt1      0.250000000000000d0     0.750000000000000d0     0.331385632514013d0
Pt1      0.416666666666667d0     0.833333333333333d0     0.407018549179424d0
Pt1      0.500000000000000d0     0.000000000000000d0     0.331385632514013d0
Pt1      0.666666666666667d0     0.083333333333333d0     0.407018549179424d0
Pt1      0.500000000000000d0     0.250000000000000d0     0.331385632514013d0
Pt1      0.666666666666667d0     0.333333333333333d0     0.407018549179424d0
Pt1      0.500000000000000d0     0.500000000000000d0     0.331385632514013d0
Pt1      0.666666666666667d0     0.583333333333333d0     0.407018549179424d0
Pt1      0.500000000000000d0     0.750000000000000d0     0.331385632514013d0
Pt1      0.666666666666667d0     0.833333333333333d0     0.407018549179424d0
Pt1      0.750000000000000d0     0.000000000000000d0     0.331385632514013d0
Pt1      0.916666666666667d0     0.083333333333333d0     0.407018549179424d0
Pt1      0.750000000000000d0     0.250000000000000d0     0.331385632514013d0
Pt1      0.916666666666667d0     0.333333333333333d0     0.407018549179424d0
Pt1      0.750000000000000d0     0.500000000000000d0     0.331385632514013d0
Pt1      0.916666666666667d0     0.583333333333333d0     0.407018549179424d0
Pt1      0.750000000000000d0     0.750000000000000d0     0.331385632514013d0
Pt1      0.916666666666667d0     0.833333333333333d0     0.407018549179424d0
O1       0.321072938080142d0     0.479692515842148d0     0.648290486643902d0
O1       0.553660610792347d0     0.463571608670205d0     0.641911313218007d0
O1       0.297897412674827d0     0.698218073662981d0     0.624487056660420d0
O1       0.748331599549931d0     0.749059345929142d0     0.627542432192200d0
O1       0.402229301200850d0     0.633651826616864d0     0.522638996363564d0
O1       0.705367351983513d0     0.516364739652251d0     0.539572802185030d0
O1       0.196652839940525d0     0.509001378464810d0     0.557523961898314d0
O1       0.873646001041643d0     0.620081761258803d0     0.591583777208104d0
C1       0.441538299361510d0     0.597557931315171d0     0.630478508896274d0
C1       0.532171427296225d0     0.544785454922711d0     0.609478601363861d0
C1       0.394984936840486d0     0.676510100008000d0     0.600047366262512d0
C1       0.675213710798492d0     0.655018999543674d0     0.592813217904731d0
C1       0.319359133385428d0     0.596700765847349d0     0.558809738152468d0
C1       0.763246286831591d0     0.596669783962969d0     0.575826390382063d0
H1       0.493946501410004d0     0.662217124014426d0     0.659385277620471d0
H1       0.474981740993444d0     0.472566682434947d0     0.582636365130226d0
H1       0.481774790744921d0     0.777449079315223d0     0.590778510121095d0
H1       0.664321782342260d0     0.714855345574577d0     0.565957726245796d0
H1       0.352553907154690d0     0.433684417539133d0     0.668614367485987d0
H1       0.605358473384663d0     0.524502647949171d0     0.666301295771039d0
H1       0.278232953023385d0     0.759541550144083d0     0.607046230821208d0
H1       0.831606013396110d0     0.825223145027849d0     0.614860304035888d0
H1       0.352132600401675d0     0.581736515692226d0     0.496194422888945d0
H1       0.762104456207719d0     0.479155496512910d0     0.527957735765413d0
K_POINTS automatic
6 6 1 0 0 0
