&CONTROL
  calculation='relax',
  prefix='calc',
  pseudo_dir='/gpfs/pace1/project/chbe-medford/medford-share/data/pseudos/SSSP_eff_PBE',
  outdir='.',
  tprnfor=.true.,
/
&SYSTEM
  ibrav=0,
  celldm(1)=1.8897261245650618d0,
  nat=143,
  ntyp=4,
  ecutwfc=29.3994590327d0,
  ecutrho=330.743914118d0,
  nbnd=1251,
  occupations='smearing',
  smearing='fd',
  degauss=0.00734986475817d0,
  input_dft='PBE',
/
&ELECTRONS
  diagonalization='cg',
  conv_thr=7.34986475817e-08,
  mixing_beta=0.05d0,
  mixing_mode='local-TF',
  electron_maxstep=1000,
  conv_thr=7.34986475817e-08,
/
&IONS
  ion_dynamics='ase3',
/
CELL_PARAMETERS
    5.767445750069956d0     0.000000000000000d0     0.000000000000000d0
   -2.883722875034978d0     4.994754534509179d0     0.000000000000000d0
    0.000000000000000d0    -0.000000000000000d0    22.354549867809133d0
ATOMIC_SPECIES
Au1 196.9665d0 Au.UPF
O1 15.9994d0 O.UPF
C1 12.011d0 C.UPF
H1 1.00794d0 H.UPF
ATOMIC_POSITIONS {crystal}
Au1      0.000000000000000d0     0.000000000000000d0     0.447336227261733d0
Au1      0.000000000000000d0     0.500000000000000d0     0.447336227261733d0
Au1      0.500000000000000d0     0.500000000000000d0     0.447336227261733d0
Au1      0.500000000000000d0     0.000000000000000d0     0.447336227261733d0
Au1      0.666666666666667d0     0.333333333333333d0     0.552663772738267d0
Au1      0.666666666666667d0     0.833333333333333d0     0.552663772738267d0
Au1      0.166666666666667d0     0.833333333333333d0     0.552663772738267d0
Au1      0.166666666666667d0     0.333333333333333d0     0.552663772738267d0
Au1      0.000000000000000d0     0.000000000000000d0     0.447336227261733d0
Au1      1.000000000000000d0     0.500000000000000d0     0.447336227261733d0
Au1      0.500000000000000d0     0.500000000000000d0     0.447336227261733d0
Au1      0.500000000000000d0     0.000000000000000d0     0.447336227261733d0
Au1      0.666666666666667d0     0.333333333333333d0     0.552663772738267d0
Au1      0.666666666666667d0     0.833333333333333d0     0.552663772738267d0
Au1      0.166666666666667d0     0.833333333333333d0     0.552663772738267d0
Au1      0.166666666666667d0     0.333333333333333d0     0.552663772738267d0
Au1      0.000000000000000d0     0.000000000000000d0     0.447336227261733d0
Au1      0.000000000000000d0     0.500000000000000d0     0.447336227261733d0
Au1      0.500000000000000d0     0.500000000000000d0     0.447336227261733d0
Au1      0.500000000000000d0     0.000000000000000d0     0.447336227261733d0
Au1      0.666666666666667d0     0.333333333333333d0     0.552663772738267d0
Au1      0.666666666666667d0     0.833333333333333d0     0.552663772738267d0
Au1      0.166666666666667d0     0.833333333333333d0     0.552663772738267d0
Au1      0.166666666666667d0     0.333333333333333d0     0.552663772738267d0
Au1      0.000000000000000d0     0.000000000000000d0     0.447336227261733d0
Au1      0.000000000000000d0     0.500000000000000d0     0.447336227261733d0
Au1      0.500000000000000d0     0.500000000000000d0     0.447336227261733d0
Au1      0.500000000000000d0     0.000000000000000d0     0.447336227261733d0
Au1      0.666666666666667d0     0.333333333333333d0     0.552663772738267d0
Au1      0.666666666666666d0     0.833333333333333d0     0.552663772738267d0
Au1      0.166666666666667d0     0.833333333333333d0     0.552663772738267d0
Au1      0.166666666666667d0     0.333333333333333d0     0.552663772738267d0
Au1      0.000000000000000d0     0.000000000000000d0     0.447336227261733d0
Au1      1.000000000000000d0     0.500000000000000d0     0.447336227261733d0
Au1      0.500000000000000d0     0.500000000000000d0     0.447336227261733d0
Au1      0.500000000000000d0     0.000000000000000d0     0.447336227261733d0
Au1      0.666666666666667d0     0.333333333333333d0     0.552663772738267d0
Au1      0.666666666666667d0     0.833333333333333d0     0.552663772738267d0
Au1      0.166666666666667d0     0.833333333333333d0     0.552663772738267d0
Au1      0.166666666666667d0     0.333333333333333d0     0.552663772738267d0
Au1      0.000000000000000d0     0.000000000000000d0     0.447336227261733d0
Au1      1.000000000000000d0     0.500000000000000d0     0.447336227261733d0
Au1      0.500000000000000d0     0.500000000000000d0     0.447336227261733d0
Au1      0.500000000000000d0     0.000000000000000d0     0.447336227261733d0
Au1      0.666666666666667d0     0.333333333333333d0     0.552663772738267d0
Au1      0.666666666666667d0     0.833333333333333d0     0.552663772738267d0
Au1      0.166666666666667d0     0.833333333333333d0     0.552663772738267d0
Au1      0.166666666666667d0     0.333333333333333d0     0.552663772738267d0
Au1      0.000000000000000d0     0.000000000000000d0     0.447336227261733d0
Au1      0.000000000000000d0     0.500000000000000d0     0.447336227261733d0
Au1      0.500000000000000d0     0.500000000000000d0     0.447336227261733d0
Au1      0.500000000000000d0     0.000000000000000d0     0.447336227261733d0
Au1      0.666666666666667d0     0.333333333333333d0     0.552663772738267d0
Au1      0.666666666666666d0     0.833333333333333d0     0.552663772738267d0
Au1      0.166666666666667d0     0.833333333333333d0     0.552663772738267d0
Au1      0.166666666666667d0     0.333333333333333d0     0.552663772738267d0
Au1      0.000000000000000d0     0.000000000000000d0     0.447336227261733d0
Au1      0.000000000000000d0     0.500000000000000d0     0.447336227261733d0
Au1      0.500000000000000d0     0.500000000000000d0     0.447336227261733d0
Au1      0.500000000000000d0     0.000000000000000d0     0.447336227261733d0
Au1      0.666666666666667d0     0.333333333333333d0     0.552663772738267d0
Au1      0.666666666666666d0     0.833333333333333d0     0.552663772738267d0
Au1      0.166666666666667d0     0.833333333333333d0     0.552663772738267d0
Au1      0.166666666666667d0     0.333333333333333d0     0.552663772738267d0
Au1      0.000000000000000d0     0.000000000000000d0     0.447336227261733d0
Au1      0.000000000000000d0     0.500000000000000d0     0.447336227261733d0
Au1      0.500000000000000d0     0.500000000000000d0     0.447336227261733d0
Au1      0.500000000000000d0     0.000000000000000d0     0.447336227261733d0
Au1      0.666666666666667d0     0.333333333333333d0     0.552663772738267d0
Au1      0.666666666666667d0     0.833333333333333d0     0.552663772738267d0
Au1      0.166666666666667d0     0.833333333333333d0     0.552663772738267d0
Au1      0.166666666666667d0     0.333333333333333d0     0.552663772738267d0
Au1      1.000000000000000d0     0.000000000000000d0     0.447336227261733d0
Au1      1.000000000000000d0     0.500000000000000d0     0.447336227261733d0
Au1      0.500000000000000d0     0.500000000000000d0     0.447336227261733d0
Au1      0.500000000000000d0     0.000000000000000d0     0.447336227261733d0
Au1      0.666666666666667d0     0.333333333333333d0     0.552663772738267d0
Au1      0.666666666666666d0     0.833333333333333d0     0.552663772738267d0
Au1      0.166666666666667d0     0.833333333333333d0     0.552663772738267d0
Au1      0.166666666666667d0     0.333333333333333d0     0.552663772738267d0
Au1      0.000000000000000d0     0.000000000000000d0     0.447336227261733d0
Au1      1.000000000000000d0     0.500000000000000d0     0.447336227261733d0
Au1      0.500000000000000d0     0.500000000000000d0     0.447336227261733d0
Au1      0.500000000000000d0     0.000000000000000d0     0.447336227261733d0
Au1      0.666666666666667d0     0.333333333333333d0     0.552663772738267d0
Au1      0.666666666666667d0     0.833333333333333d0     0.552663772738267d0
Au1      0.166666666666667d0     0.833333333333333d0     0.552663772738267d0
Au1      0.166666666666667d0     0.333333333333333d0     0.552663772738267d0
Au1      0.000000000000000d0     0.000000000000000d0     0.447336227261733d0
Au1      0.000000000000000d0     0.500000000000000d0     0.447336227261733d0
Au1      0.500000000000000d0     0.500000000000000d0     0.447336227261733d0
Au1      0.500000000000000d0     0.000000000000000d0     0.447336227261733d0
Au1      0.666666666666667d0     0.333333333333333d0     0.552663772738267d0
Au1      0.666666666666667d0     0.833333333333333d0     0.552663772738267d0
Au1      0.166666666666667d0     0.833333333333333d0     0.552663772738267d0
Au1      0.166666666666667d0     0.333333333333333d0     0.552663772738267d0
Au1      1.000000000000000d0     0.000000000000000d0     0.447336227261733d0
Au1      1.000000000000000d0     0.500000000000000d0     0.447336227261733d0
Au1      0.500000000000000d0     0.500000000000000d0     0.447336227261733d0
Au1      0.500000000000000d0     0.000000000000000d0     0.447336227261733d0
Au1      0.666666666666666d0     0.333333333333333d0     0.552663772738267d0
Au1      0.666666666666666d0     0.833333333333333d0     0.552663772738267d0
Au1      0.166666666666667d0     0.833333333333333d0     0.552663772738267d0
Au1      0.166666666666666d0     0.333333333333333d0     0.552663772738267d0
Au1      1.000000000000000d0     0.000000000000000d0     0.447336227261733d0
Au1      1.000000000000000d0     0.500000000000000d0     0.447336227261733d0
Au1      0.500000000000000d0     0.500000000000000d0     0.447336227261733d0
Au1      0.500000000000000d0     0.000000000000000d0     0.447336227261733d0
Au1      0.666666666666666d0     0.333333333333333d0     0.552663772738267d0
Au1      0.666666666666666d0     0.833333333333333d0     0.552663772738267d0
Au1      0.166666666666666d0     0.833333333333333d0     0.552663772738267d0
Au1      0.166666666666666d0     0.333333333333333d0     0.552663772738267d0
Au1      1.000000000000000d0     0.000000000000000d0     0.447336227261733d0
Au1      1.000000000000000d0     0.500000000000000d0     0.447336227261733d0
Au1      0.500000000000000d0     0.500000000000000d0     0.447336227261733d0
Au1      0.500000000000000d0     0.000000000000000d0     0.447336227261733d0
Au1      0.666666666666667d0     0.333333333333333d0     0.552663772738267d0
Au1      0.666666666666666d0     0.833333333333333d0     0.552663772738267d0
Au1      0.166666666666667d0     0.833333333333333d0     0.552663772738267d0
Au1      0.166666666666666d0     0.333333333333333d0     0.552663772738267d0
Au1      1.000000000000000d0     0.000000000000000d0     0.447336227261733d0
Au1      0.000000000000000d0     0.500000000000000d0     0.447336227261733d0
Au1      0.500000000000000d0     0.500000000000000d0     0.447336227261733d0
Au1      0.500000000000000d0     0.000000000000000d0     0.447336227261733d0
Au1      0.666666666666667d0     0.333333333333333d0     0.552663772738267d0
Au1      0.666666666666666d0     0.833333333333333d0     0.552663772738267d0
Au1      0.166666666666667d0     0.833333333333333d0     0.552663772738267d0
Au1      0.166666666666667d0     0.333333333333333d0     0.552663772738267d0
O1       0.273491999325784d0     0.200210038970067d0     0.776331886369134d0
O1       0.112948472647514d0     0.456378783832267d0     0.778313585855903d0
O1       0.481166790196327d0     0.129555916217530d0     0.854924388136747d0
O1       0.236383547972089d0     0.166754941458169d0     0.814852008898642d0
C1       0.593812761582544d0     0.076700465929433d0     0.752215990357454d0
C1       0.787850993135172d0     0.001521596296173d0     0.778063077568637d0
C1       0.448493317223084d0     0.134881503254134d0     0.801042739563072d0
C1       0.067335586315799d0     0.209139406708132d0     0.792771492721002d0
C1       0.717065511950611d0     0.746694258695072d0     0.790221676225610d0
H1       0.694716268772598d0     0.250522821763244d0     0.722606805475000d0
H1       0.442751815978863d0     0.910305902541410d0     0.725366869997204d0
H1       0.515296691305139d0     0.585204841261816d0     0.781185484434923d0
H1       0.854660521669612d0     0.690194985697719d0     0.809327406491959d0
H1       0.177037906080203d0     0.240992823908269d0     0.806884950691110d0
H1       0.296726292779788d0     0.595965223002198d0     0.787703173266127d0
K_POINTS automatic
6 6 1 0 0 0
