&CONTROL
  calculation='relax',
  prefix='calc',
  pseudo_dir='/gpfs/pace1/project/chbe-medford/medford-share/data/pseudos/SSSP_eff_PBE',
  outdir='.',
  tprnfor=.true.,
/
&SYSTEM
  ibrav=0,
  celldm(1)=1.8897261245650618d0,
  nat=47,
  ntyp=4,
  ecutwfc=29.3994590327d0,
  ecutrho=330.743914118d0,
  nbnd=291,
  occupations='smearing',
  smearing='fd',
  degauss=0.00734986475817d0,
  input_dft='PBE',
/
&ELECTRONS
  diagonalization='cg',
  conv_thr=7.34986475817e-08,
  mixing_beta=0.05d0,
  mixing_mode='local-TF',
  electron_maxstep=1000,
  conv_thr=7.34986475817e-08,
/
&IONS
  ion_dynamics='ase3',
/
CELL_PARAMETERS
   11.181055266834164d0     0.000000000000000d0     0.000000000000000d0
   -5.590527633417082d0     9.683077902196182d0     0.000000000000000d0
    0.000000000000000d0    -0.000000000000000d0    31.932223349133508d0
ATOMIC_SPECIES
Pt1 195.08d0 Pt.UPF
O1 15.9994d0 O.UPF
C1 12.011d0 C.UPF
H1 1.00794d0 H.UPF
ATOMIC_POSITIONS {crystal}
Pt1      0.000000000000000d0     0.000000000000000d0     0.313163286209801d0
Pt1      0.166666666666667d0     0.083333333333333d0     0.384637274230602d0
Pt1      0.000000000000000d0     0.250000000000000d0     0.313163286209801d0
Pt1      0.166666666666667d0     0.333333333333333d0     0.384637274230602d0
Pt1      0.000000000000000d0     0.500000000000000d0     0.313163286209801d0
Pt1      0.166666666666667d0     0.583333333333333d0     0.384637274230602d0
Pt1      0.000000000000000d0     0.750000000000000d0     0.313163286209801d0
Pt1      0.166666666666667d0     0.833333333333333d0     0.384637274230602d0
Pt1      0.250000000000000d0     0.000000000000000d0     0.313163286209801d0
Pt1      0.416666666666667d0     0.083333333333333d0     0.384637274230602d0
Pt1      0.250000000000000d0     0.250000000000000d0     0.313163286209801d0
Pt1      0.416666666666667d0     0.333333333333333d0     0.384637274230602d0
Pt1      0.250000000000000d0     0.500000000000000d0     0.313163286209801d0
Pt1      0.416666666666667d0     0.583333333333333d0     0.384637274230602d0
Pt1      0.250000000000000d0     0.750000000000000d0     0.313163286209801d0
Pt1      0.416666666666667d0     0.833333333333333d0     0.384637274230602d0
Pt1      0.500000000000000d0     0.000000000000000d0     0.313163286209801d0
Pt1      0.666666666666667d0     0.083333333333333d0     0.384637274230602d0
Pt1      0.500000000000000d0     0.250000000000000d0     0.313163286209801d0
Pt1      0.666666666666667d0     0.333333333333333d0     0.384637274230602d0
Pt1      0.500000000000000d0     0.500000000000000d0     0.313163286209801d0
Pt1      0.666666666666667d0     0.583333333333333d0     0.384637274230602d0
Pt1      0.500000000000000d0     0.750000000000000d0     0.313163286209801d0
Pt1      0.666666666666667d0     0.833333333333333d0     0.384637274230602d0
Pt1      0.750000000000000d0     0.000000000000000d0     0.313163286209801d0
Pt1      0.916666666666667d0     0.083333333333333d0     0.384637274230602d0
Pt1      0.750000000000000d0     0.250000000000000d0     0.313163286209801d0
Pt1      0.916666666666667d0     0.333333333333333d0     0.384637274230602d0
Pt1      0.750000000000000d0     0.500000000000000d0     0.313163286209801d0
Pt1      0.916666666666667d0     0.583333333333333d0     0.384637274230602d0
Pt1      0.750000000000000d0     0.750000000000000d0     0.313163286209801d0
Pt1      0.916666666666667d0     0.833333333333333d0     0.384637274230602d0
O1       0.705367351983513d0     0.516364739652251d0     0.509902588714523d0
O1       0.822089484714248d0     0.520939731245570d0     0.638387221780680d0
O1       0.764525157052349d0     0.697804981871259d0     0.553792423276827d0
O1       0.734886597611269d0     0.605293075115162d0     0.686836713790199d0
C1       0.622356445770282d0     0.460690293422946d0     0.578911250463715d0
C1       0.618608408267369d0     0.520361402737160d0     0.620746733868482d0
C1       0.704708048266313d0     0.573412716089032d0     0.547410155503871d0
C1       0.728332646206577d0     0.554317548016692d0     0.652476438027259d0
C1       0.518807792833133d0     0.548430989984656d0     0.630974646796094d0
H1       0.665827463954508d0     0.392333929187781d0     0.581438478183428d0
H1       0.517033146362153d0     0.398705870075089d0     0.566654039441463d0
H1       0.436237343770528d0     0.527569854502705d0     0.609115849418650d0
H1       0.515622610470717d0     0.592538866045751d0     0.660928715122062d0
H1       0.758853379874854d0     0.586900163088749d0     0.488798514856844d0
H1       0.895283454511575d0     0.542616723016172d0     0.658974576216113d0
K_POINTS automatic
6 6 1 0 0 0
