&CONTROL
  calculation='relax',
  prefix='calc',
  pseudo_dir='/gpfs/pace1/project/chbe-medford/medford-share/data/pseudos/SSSP_eff_PBE',
  outdir='.',
  tprnfor=.true.,
/
&SYSTEM
  ibrav=0,
  celldm(1)=1.8897261245650618d0,
  nat=152,
  ntyp=4,
  ecutwfc=29.3994590327d0,
  ecutrho=330.743914118d0,
  nbnd=1075,
  occupations='smearing',
  smearing='fd',
  degauss=0.00734986475817d0,
  input_dft='PBE',
/
&ELECTRONS
  diagonalization='cg',
  conv_thr=7.34986475817e-08,
  mixing_beta=0.05d0,
  mixing_mode='local-TF',
  electron_maxstep=1000,
  conv_thr=7.34986475817e-08,
/
&IONS
  ion_dynamics='ase3',
/
CELL_PARAMETERS
    5.547959805189652d0     0.000000000000000d0     0.000000000000000d0
   -2.773979902594826d0     4.804674130469205d0     0.000000000000000d0
    0.000000000000000d0    -0.000000000000000d0    22.264945106030900d0
ATOMIC_SPECIES
Pt1 195.08d0 Pt.UPF
O1 15.9994d0 O.UPF
C1 12.011d0 C.UPF
H1 1.00794d0 H.UPF
ATOMIC_POSITIONS {crystal}
Pt1      0.000000000000000d0     0.000000000000000d0     0.449136521665679d0
Pt1      0.000000000000000d0     0.500000000000000d0     0.449136521665679d0
Pt1      0.500000000000000d0     0.500000000000000d0     0.449136521665679d0
Pt1      0.500000000000000d0     0.000000000000000d0     0.449136521665679d0
Pt1      0.666666666666667d0     0.333333333333333d0     0.550863478334321d0
Pt1      0.666666666666667d0     0.833333333333333d0     0.550863478334321d0
Pt1      0.166666666666667d0     0.833333333333333d0     0.550863478334321d0
Pt1      0.166666666666667d0     0.333333333333333d0     0.550863478334321d0
Pt1      0.000000000000000d0     0.000000000000000d0     0.449136521665679d0
Pt1      1.000000000000000d0     0.500000000000000d0     0.449136521665679d0
Pt1      0.500000000000000d0     0.500000000000000d0     0.449136521665679d0
Pt1      0.500000000000000d0     0.000000000000000d0     0.449136521665679d0
Pt1      0.666666666666667d0     0.333333333333333d0     0.550863478334321d0
Pt1      0.666666666666667d0     0.833333333333333d0     0.550863478334321d0
Pt1      0.166666666666667d0     0.833333333333333d0     0.550863478334321d0
Pt1      0.166666666666667d0     0.333333333333333d0     0.550863478334321d0
Pt1      0.000000000000000d0     0.000000000000000d0     0.449136521665679d0
Pt1      0.000000000000000d0     0.500000000000000d0     0.449136521665679d0
Pt1      0.500000000000000d0     0.500000000000000d0     0.449136521665679d0
Pt1      0.500000000000000d0     0.000000000000000d0     0.449136521665679d0
Pt1      0.666666666666667d0     0.333333333333333d0     0.550863478334321d0
Pt1      0.666666666666667d0     0.833333333333333d0     0.550863478334321d0
Pt1      0.166666666666667d0     0.833333333333333d0     0.550863478334321d0
Pt1      0.166666666666667d0     0.333333333333333d0     0.550863478334321d0
Pt1      1.000000000000000d0     1.000000000000000d0     0.449136521665679d0
Pt1      0.000000000000000d0     0.500000000000000d0     0.449136521665679d0
Pt1      0.500000000000000d0     0.500000000000000d0     0.449136521665679d0
Pt1      0.500000000000000d0     1.000000000000000d0     0.449136521665679d0
Pt1      0.666666666666667d0     0.333333333333333d0     0.550863478334321d0
Pt1      0.666666666666667d0     0.833333333333333d0     0.550863478334321d0
Pt1      0.166666666666667d0     0.833333333333333d0     0.550863478334321d0
Pt1      0.166666666666667d0     0.333333333333333d0     0.550863478334321d0
Pt1      0.000000000000000d0     0.000000000000000d0     0.449136521665679d0
Pt1      0.000000000000000d0     0.500000000000000d0     0.449136521665679d0
Pt1      0.500000000000000d0     0.500000000000000d0     0.449136521665679d0
Pt1      0.500000000000000d0     0.000000000000000d0     0.449136521665679d0
Pt1      0.666666666666667d0     0.333333333333333d0     0.550863478334321d0
Pt1      0.666666666666667d0     0.833333333333333d0     0.550863478334321d0
Pt1      0.166666666666667d0     0.833333333333333d0     0.550863478334321d0
Pt1      0.166666666666667d0     0.333333333333333d0     0.550863478334321d0
Pt1      0.000000000000000d0     0.000000000000000d0     0.449136521665679d0
Pt1      1.000000000000000d0     0.500000000000000d0     0.449136521665679d0
Pt1      0.500000000000000d0     0.500000000000000d0     0.449136521665679d0
Pt1      0.500000000000000d0     0.000000000000000d0     0.449136521665679d0
Pt1      0.666666666666667d0     0.333333333333333d0     0.550863478334321d0
Pt1      0.666666666666667d0     0.833333333333333d0     0.550863478334321d0
Pt1      0.166666666666667d0     0.833333333333333d0     0.550863478334321d0
Pt1      0.166666666666667d0     0.333333333333333d0     0.550863478334321d0
Pt1      0.000000000000000d0     0.000000000000000d0     0.449136521665679d0
Pt1      0.000000000000000d0     0.500000000000000d0     0.449136521665679d0
Pt1      0.500000000000000d0     0.500000000000000d0     0.449136521665679d0
Pt1      0.500000000000000d0     0.000000000000000d0     0.449136521665679d0
Pt1      0.666666666666667d0     0.333333333333333d0     0.550863478334321d0
Pt1      0.666666666666667d0     0.833333333333333d0     0.550863478334321d0
Pt1      0.166666666666667d0     0.833333333333333d0     0.550863478334321d0
Pt1      0.166666666666667d0     0.333333333333333d0     0.550863478334321d0
Pt1      1.000000000000000d0     1.000000000000000d0     0.449136521665679d0
Pt1      1.000000000000000d0     0.500000000000000d0     0.449136521665679d0
Pt1      0.500000000000000d0     0.500000000000000d0     0.449136521665679d0
Pt1      0.500000000000000d0     1.000000000000000d0     0.449136521665679d0
Pt1      0.666666666666667d0     0.333333333333333d0     0.550863478334321d0
Pt1      0.666666666666667d0     0.833333333333333d0     0.550863478334321d0
Pt1      0.166666666666667d0     0.833333333333333d0     0.550863478334321d0
Pt1      0.166666666666667d0     0.333333333333333d0     0.550863478334321d0
Pt1      0.000000000000000d0     0.000000000000000d0     0.449136521665679d0
Pt1      0.000000000000000d0     0.500000000000000d0     0.449136521665679d0
Pt1      0.500000000000000d0     0.500000000000000d0     0.449136521665679d0
Pt1      0.500000000000000d0     0.000000000000000d0     0.449136521665679d0
Pt1      0.666666666666667d0     0.333333333333333d0     0.550863478334321d0
Pt1      0.666666666666667d0     0.833333333333333d0     0.550863478334321d0
Pt1      0.166666666666667d0     0.833333333333333d0     0.550863478334321d0
Pt1      0.166666666666667d0     0.333333333333333d0     0.550863478334321d0
Pt1      0.000000000000000d0     0.000000000000000d0     0.449136521665679d0
Pt1      1.000000000000000d0     0.500000000000000d0     0.449136521665679d0
Pt1      0.500000000000000d0     0.500000000000000d0     0.449136521665679d0
Pt1      0.500000000000000d0     0.000000000000000d0     0.449136521665679d0
Pt1      0.666666666666667d0     0.333333333333333d0     0.550863478334321d0
Pt1      0.666666666666667d0     0.833333333333333d0     0.550863478334321d0
Pt1      0.166666666666667d0     0.833333333333333d0     0.550863478334321d0
Pt1      0.166666666666667d0     0.333333333333333d0     0.550863478334321d0
Pt1      0.000000000000000d0     0.000000000000000d0     0.449136521665679d0
Pt1      0.000000000000000d0     0.500000000000000d0     0.449136521665679d0
Pt1      0.500000000000000d0     0.500000000000000d0     0.449136521665679d0
Pt1      0.500000000000000d0     0.000000000000000d0     0.449136521665679d0
Pt1      0.666666666666667d0     0.333333333333333d0     0.550863478334321d0
Pt1      0.666666666666667d0     0.833333333333333d0     0.550863478334321d0
Pt1      0.166666666666667d0     0.833333333333333d0     0.550863478334321d0
Pt1      0.166666666666667d0     0.333333333333333d0     0.550863478334321d0
Pt1      1.000000000000000d0     1.000000000000000d0     0.449136521665679d0
Pt1      1.000000000000000d0     0.500000000000000d0     0.449136521665679d0
Pt1      0.500000000000000d0     0.500000000000000d0     0.449136521665679d0
Pt1      0.500000000000000d0     1.000000000000000d0     0.449136521665679d0
Pt1      0.666666666666667d0     0.333333333333333d0     0.550863478334321d0
Pt1      0.666666666666667d0     0.833333333333333d0     0.550863478334321d0
Pt1      0.166666666666667d0     0.833333333333333d0     0.550863478334321d0
Pt1      0.166666666666667d0     0.333333333333333d0     0.550863478334321d0
Pt1      0.000000000000000d0     0.000000000000000d0     0.449136521665679d0
Pt1      0.000000000000000d0     0.500000000000000d0     0.449136521665679d0
Pt1      0.500000000000000d0     0.500000000000000d0     0.449136521665679d0
Pt1      0.500000000000000d0     0.000000000000000d0     0.449136521665679d0
Pt1      0.666666666666667d0     0.333333333333333d0     0.550863478334321d0
Pt1      0.666666666666667d0     0.833333333333333d0     0.550863478334321d0
Pt1      0.166666666666667d0     0.833333333333333d0     0.550863478334321d0
Pt1      0.166666666666667d0     0.333333333333333d0     0.550863478334321d0
Pt1      0.000000000000000d0     0.000000000000000d0     0.449136521665679d0
Pt1      0.000000000000000d0     0.500000000000000d0     0.449136521665679d0
Pt1      0.500000000000000d0     0.500000000000000d0     0.449136521665679d0
Pt1      0.500000000000000d0     0.000000000000000d0     0.449136521665679d0
Pt1      0.666666666666667d0     0.333333333333333d0     0.550863478334321d0
Pt1      0.666666666666667d0     0.833333333333333d0     0.550863478334321d0
Pt1      0.166666666666667d0     0.833333333333333d0     0.550863478334321d0
Pt1      0.166666666666667d0     0.333333333333333d0     0.550863478334321d0
Pt1      0.000000000000000d0     0.000000000000000d0     0.449136521665679d0
Pt1      0.000000000000000d0     0.500000000000000d0     0.449136521665679d0
Pt1      0.500000000000000d0     0.500000000000000d0     0.449136521665679d0
Pt1      0.500000000000000d0     0.000000000000000d0     0.449136521665679d0
Pt1      0.666666666666667d0     0.333333333333333d0     0.550863478334321d0
Pt1      0.666666666666667d0     0.833333333333333d0     0.550863478334321d0
Pt1      0.166666666666667d0     0.833333333333333d0     0.550863478334321d0
Pt1      0.166666666666667d0     0.333333333333333d0     0.550863478334321d0
Pt1      0.000000000000000d0     1.000000000000000d0     0.449136521665679d0
Pt1      0.000000000000000d0     0.500000000000000d0     0.449136521665679d0
Pt1      0.500000000000000d0     0.500000000000000d0     0.449136521665679d0
Pt1      0.500000000000000d0     1.000000000000000d0     0.449136521665679d0
Pt1      0.666666666666667d0     0.333333333333333d0     0.550863478334321d0
Pt1      0.666666666666667d0     0.833333333333333d0     0.550863478334321d0
Pt1      0.166666666666667d0     0.833333333333333d0     0.550863478334321d0
Pt1      0.166666666666667d0     0.333333333333333d0     0.550863478334321d0
O1       0.888186518204458d0     0.890944918169084d0     0.791380577051509d0
O1       0.353143036232587d0     0.850879766033324d0     0.798391598154710d0
O1       0.546527464260734d0     0.741444664771076d0     0.696343289067051d0
O1       0.412671391677853d0     0.760634311664152d0     0.674232298105450d0
O1       0.502019514311923d0     0.101775892957853d0     0.724423304401589d0
O1       0.284311769474996d0     0.208130660445507d0     0.775431739167161d0
O1       0.322868365687099d0     0.320875039208839d0     0.778634082566637d0
O1       0.682269095234252d0     0.534791732014732d0     0.730324958296276d0
C1       0.956260953415271d0     0.779074688179624d0     0.740120625833805d0
C1       0.126149194770746d0     0.647182288655306d0     0.763071502090921d0
C1       0.687318710754984d0     0.587948302692514d0     0.705784138752464d0
C1       0.251015014630603d0     0.542513379517260d0     0.715130669768327d0
C1       0.485829385988444d0     0.328950508834125d0     0.740493409146787d0
C1       0.433884084998483d0     0.435825602972893d0     0.740506883242437d0
H1       0.087502466580708d0     0.960627063286240d0     0.712000188212317d0
H1       0.999372191558562d0     0.478596453694444d0     0.794479619051002d0
H1       0.731409716872016d0     0.529734156965906d0     0.661885535124860d0
H1       0.084434020787285d0     0.373844292292221d0     0.689107699703017d0
H1       0.061815916022539d0     0.018591452220314d0     0.811389609091715d0
H1       0.472525623955016d0     0.004063932121217d0     0.771892543376435d0
H1       0.390333209597261d0     0.631905498178605d0     0.669673562410543d0
H1       0.463924115555764d0     0.680982707911656d0     0.641108479632606d0
H1       0.370326866839985d0     0.935687625922338d0     0.747001397345723d0
H1       0.399676471658010d0     0.135180863959357d0     0.791614128042775d0
K_POINTS automatic
6 6 1 0 0 0
